1 -1 2 0
1 3 4 0
1 5 -4 0
1 -6 -4 0
1 -4 1 0
1 -7 -6 0
1 7 5 0
1 8 -9 0
1 10 6 0
1 -10 -11 0
1 -12 13 0
1 14 -15 0
1 16 6 0
1 16 -17 0
1 -16 -18 0
1 -19 -5 0
1 -20 -21 0
1 -20 -6 0
1 22 23 0
1 -24 -25 0
1 26 27 0
1 -13 -26 0
1 23 27 0
1 -23 28 0
1 23 29 0
1 -30 23 0
1 31 32 0
1 -33 34 0
1 -35 -36 0
1 -35 2 0
1 -37 -2 0
1 -9 38 0
1 9 -39 0
1 40 -39 0
1 40 -41 0
1 40 -42 0
1 -43 8 0
1 -43 -44 0
1 43 42 0
1 45 43 0
1 -45 -31 0
1 -44 11 0
1 -44 31 0
1 -46 -45 0
1 -46 -47 0
1 46 7 0
1 -48 -19 0
1 -48 49 0
1 -50 -51 0
1 -25 52 0
1 -41 -53 0
1 42 -54 0
1 47 -43 0
1 47 -55 0
1 -49 48 0
1 49 -56 0
1 49 -46 0
1 -53 20 0
1 53 -15 0
1 57 30 0
1 58 -59 0
1 60 17 0
1 -60 -42 0
1 -61 53 0
1 61 4 0
1 61 62 0
1 -63 -58 0
1 63 -51 0
1 -63 57 0
1 51 64 0
1 -65 66 0
1 -66 61 0
1 -66 67 0
1 66 -68 0
1 -59 15 0
1 -21 -28 0
1 -21 69 0
1 -70 71 0
1 -72 73 0
1 72 66 0
1 71 -73 0
1 29 74 0
1 29 -75 0
1 76 77 0
1 76 -65 0
1 -78 -79 0
1 80 -81 0
1 80 -82 0
1 34 -83 0
1 -79 -84 0
1 -79 -78 0
1 -82 78 0
1 85 -79 0
1 -85 -86 0
1 -87 88 0
1 -87 -85 0
1 -89 -90 0
1 -91 -79 0
1 90 87 0
1 -86 92 0
1 -86 80 0
1 -83 81 0
1 -83 93 0
1 -81 -94 0
1 81 -91 0
1 -81 -34 0
1 81 83 0
1 95 96 0
1 -95 -46 0
1 -97 -25 0
1 -97 -98 0
1 97 99 0
1 96 -95 0
1 -100 -101 0
1 -99 102 0
1 -56 103 0
1 -104 -105 0
1 -104 -39 0
1 -104 -56 0
1 106 -60 0
1 107 54 0
1 98 -108 0
1 109 -97 0
1 -109 -110 0
1 -55 -111 0
1 -55 -102 0
1 54 112 0
1 54 51 0
1 -113 114 0
1 -112 115 0
1 116 -117 0
1 116 118 0
1 119 116 0
1 119 -68 0
1 -114 -70 0
1 114 -113 0
1 114 -61 0
1 -120 -67 0
1 120 -64 0
1 121 -114 0
1 121 118 0
1 -121 122 0
1 -123 124 0
1 -125 -126 0
1 125 127 0
1 125 128 0
1 -129 -120 0
1 -129 -130 0
1 124 131 0
1 -124 67 0
1 -77 -132 0
1 -77 -133 0
1 62 134 0
1 -62 124 0
1 62 120 0
1 -135 136 0
1 -135 -62 0
1 135 -137 0
1 133 -138 0
1 -133 -139 0
1 -133 -140 0
1 -133 -124 0
1 64 -134 0
1 64 120 0
1 141 -29 0
1 -74 139 0
1 137 -142 0
1 -143 -144 0
1 -143 -74 0
1 -145 146 0
1 -145 -137 0
1 -132 -147 0
1 -148 143 0
1 144 149 0
1 150 -151 0
1 152 -144 0
1 -152 153 0
1 151 153 0
1 151 -137 0
1 154 -150 0
1 -154 144 0
1 154 -137 0
1 155 156 0
1 157 80 0
1 -158 -34 0
1 158 -159 0
1 159 -160 0
1 -161 -162 0
1 163 -164 0
1 -165 -82 0
1 -165 166 0
1 167 168 0
1 167 169 0
1 -170 -171 0
1 170 172 0
1 173 -174 0
1 -173 -167 0
1 -169 -175 0
1 -172 88 0
1 84 79 0
1 84 169 0
1 -94 168 0
1 -176 173 0
1 -177 178 0
1 -177 173 0
1 -168 -171 0
1 -168 -179 0
1 -180 174 0
1 -178 -174 0
1 93 181 0
1 -93 182 0
1 93 183 0
1 -105 -168 0
1 184 185 0
1 -184 186 0
1 -179 -168 0
1 179 185 0
1 183 -93 0
1 181 176 0
1 -181 -183 0
1 -187 82 0
1 -185 -188 0
1 102 -96 0
1 -189 -98 0
1 190 -191 0
1 190 -68 0
1 186 -192 0
1 -186 189 0
1 193 98 0
1 193 -111 0
1 -194 -195 0
1 194 -191 0
1 194 196 0
1 -197 -194 0
1 197 119 0
1 -197 -120 0
1 -195 194 0
1 195 193 0
1 -191 126 0
1 -191 -110 0
1 -191 -197 0
1 128 -195 0
1 198 -199 0
1 200 197 0
1 199 -201 0
1 -199 126 0
1 -196 -126 0
1 196 202 0
1 138 -203 0
1 -138 -129 0
1 139 -64 0
1 142 127 0
1 142 -204 0
1 142 -115 0
1 142 -205 0
1 204 133 0
1 -204 205 0
1 206 -198 0
1 115 -207 0
1 -115 -136 0
1 -117 -208 0
1 -117 198 0
1 -146 148 0
1 -136 -133 0
1 -209 132 0
1 -209 -210 0
1 211 -210 0
1 -211 -115 0
1 -212 -211 0
1 -212 136 0
1 -212 213 0
1 212 142 0
1 127 -214 0
1 -127 215 0
1 -205 -207 0
1 205 -216 0
1 217 218 0
1 -147 219 0
1 147 -218 0
1 220 221 0
1 -210 -222 0
1 -223 224 0
1 -218 133 0
1 -225 -220 0
1 225 147 0
1 225 -217 0
1 226 -227 0
1 -228 229 0
1 222 -230 0
1 -231 143 0
1 232 149 0
1 -232 -233 0
1 -232 234 0
1 230 -235 0
1 -221 -236 0
1 221 132 0
1 -237 238 0
1 -239 -240 0
1 -239 241 0
1 -242 -154 0
1 -242 241 0
1 243 -241 0
1 156 -244 0
1 245 -246 0
1 -245 247 0
1 -245 -248 0
1 -245 249 0
1 -248 -246 0
1 -250 251 0
1 249 252 0
1 -249 164 0
1 -244 253 0
1 244 254 0
1 -166 255 0
1 -166 256 0
1 255 -256 0
1 -162 257 0
1 -162 249 0
1 -162 258 0
1 -164 257 0
1 -164 -259 0
1 164 -162 0
1 -247 -260 0
1 -247 -248 0
1 -247 -261 0
1 262 -263 0
1 -262 255 0
1 -262 261 0
1 -262 245 0
1 246 264 0
1 246 -256 0
1 -246 -166 0
1 -256 164 0
1 265 -257 0
1 265 -266 0
1 258 265 0
1 258 -267 0
1 257 -268 0
1 -259 269 0
1 174 -175 0
1 -174 267 0
1 175 -174 0
1 -270 184 0
1 270 -271 0
1 -272 273 0
1 -274 -272 0
1 -275 175 0
1 276 -277 0
1 -276 -270 0
1 276 -278 0
1 -279 272 0
1 -280 -178 0
1 -280 -281 0
1 282 283 0
1 284 -273 0
1 284 -285 0
1 284 -286 0
1 -286 -285 0
1 -286 -190 0
1 -286 -278 0
1 283 -287 0
1 288 -289 0
1 -288 -290 0
1 -288 282 0
1 291 292 0
1 -293 294 0
1 -293 -181 0
1 293 -295 0
1 293 296 0
1 -297 -298 0
1 -299 294 0
1 299 -300 0
1 -299 301 0
1 -300 302 0
1 300 303 0
1 294 293 0
1 285 289 0
1 304 -289 0
1 304 -305 0
1 -304 -299 0
1 -306 -300 0
1 306 307 0
1 308 188 0
1 -309 310 0
1 309 301 0
1 309 -311 0
1 312 -298 0
1 313 -298 0
1 298 -306 0
1 301 -314 0
1 188 185 0
1 188 -315 0
1 -316 298 0
1 316 317 0
1 -318 319 0
1 320 313 0
1 202 320 0
1 -321 -309 0
1 321 322 0
1 -321 -323 0
1 311 -312 0
1 -311 324 0
1 192 -325 0
1 -192 -318 0
1 -192 314 0
1 208 326 0
1 208 -321 0
1 322 -327 0
1 322 -203 0
1 328 329 0
1 328 321 0
1 -330 320 0
1 326 325 0
1 326 -208 0
1 331 202 0
1 332 -327 0
1 207 327 0
1 215 -333 0
1 -215 -334 0
1 329 -335 0
1 329 336 0
1 -329 322 0
1 336 -337 0
1 -336 -227 0
1 -327 338 0
1 227 -218 0
1 -214 -334 0
1 229 339 0
1 340 341 0
1 -340 218 0
1 -342 343 0
1 344 -345 0
1 346 -347 0
1 346 -348 0
1 -238 -334 0
1 236 -225 0
1 343 -221 0
1 -343 -349 0
1 -343 350 0
1 351 224 0
1 -351 -342 0
1 352 -353 0
1 213 340 0
1 -213 234 0
1 339 354 0
1 -339 238 0
1 -355 233 0
1 350 356 0
1 350 -357 0
1 -224 358 0
1 349 359 0
1 -349 355 0
1 349 353 0
1 -356 -360 0
1 357 -224 0
1 -357 361 0
1 357 362 0
1 -233 363 0
1 -233 232 0
1 -233 -355 0
1 233 364 0
1 -233 -365 0
1 -362 366 0
1 -362 -356 0
1 362 -367 0
1 -365 -368 0
1 363 -369 0
1 360 -356 0
1 360 -364 0
1 -369 370 0
1 -369 -371 0
1 368 372 0
1 -373 -374 0
1 375 376 0
1 -375 -377 0
1 377 378 0
1 -377 375 0
1 -379 254 0
1 -376 380 0
1 -374 381 0
1 378 379 0
1 378 382 0
1 383 -384 0
1 254 -164 0
1 -254 -382 0
1 -254 385 0
1 -384 378 0
1 384 386 0
1 -387 254 0
1 387 386 0
1 388 -389 0
1 -390 -381 0
1 -252 -250 0
1 -252 256 0
1 -252 384 0
1 -391 -392 0
1 391 -385 0
1 -393 251 0
1 393 394 0
1 -393 395 0
1 -396 252 0
1 385 397 0
1 -385 390 0
1 -385 383 0
1 398 399 0
1 -398 -390 0
1 -400 251 0
1 -268 -396 0
1 -268 -401 0
1 269 -392 0
1 -392 268 0
1 -392 391 0
1 -401 402 0
1 -401 397 0
1 -281 279 0
1 -403 404 0
1 -403 -251 0
1 277 -264 0
1 -277 -405 0
1 -278 264 0
1 -260 292 0
1 260 278 0
1 -260 -403 0
1 405 260 0
1 405 281 0
1 264 -406 0
1 -264 407 0
1 -408 406 0
1 -408 402 0
1 -408 -278 0
1 292 -260 0
1 -290 409 0
1 290 291 0
1 410 411 0
1 410 -291 0
1 -412 -287 0
1 -413 292 0
1 413 -414 0
1 -409 415 0
1 -409 290 0
1 416 417 0
1 289 -306 0
1 -289 -413 0
1 287 418 0
1 -310 -285 0
1 -305 -419 0
1 420 315 0
1 -411 -310 0
1 -418 -421 0
1 -418 -414 0
1 -302 -301 0
1 319 -302 0
1 319 188 0
1 319 -422 0
1 423 424 0
1 422 -425 0
1 -426 427 0
1 426 291 0
1 -314 424 0
1 314 -428 0
1 -314 422 0
1 428 -188 0
1 429 -424 0
1 430 -431 0
1 430 -432 0
1 -424 -433 0
1 424 434 0
1 -435 -436 0
1 -437 436 0
1 437 438 0
1 -325 -324 0
1 -434 424 0
1 333 -439 0
1 333 431 0
1 333 434 0
1 440 441 0
1 -440 -433 0
1 442 443 0
1 442 331 0
1 444 -442 0
1 445 -341 0
1 445 446 0
1 445 -229 0
1 445 327 0
1 -341 -340 0
1 341 -443 0
1 -447 -448 0
1 448 444 0
1 448 -434 0
1 -443 -449 0
1 443 450 0
1 -347 451 0
1 -347 -447 0
1 -337 236 0
1 337 452 0
1 -337 344 0
1 -453 -448 0
1 454 -354 0
1 454 -455 0
1 454 -330 0
1 446 -456 0
1 446 457 0
1 -458 459 0
1 354 -460 0
1 354 454 0
1 461 -335 0
1 -461 338 0
1 -461 -216 0
1 -335 462 0
1 335 455 0
1 -335 463 0
1 -464 461 0
1 -465 453 0
1 -465 -456 0
1 338 463 0
1 338 -466 0
1 467 -352 0
1 467 -464 0
1 -353 349 0
1 353 456 0
1 -353 -468 0
1 -353 -216 0
1 -359 -469 0
1 -470 467 0
1 -470 471 0
1 470 461 0
1 472 -473 0
1 472 -354 0
1 -472 463 0
1 -474 -475 0
1 474 461 0
1 -358 476 0
1 358 -362 0
1 476 468 0
1 366 -363 0
1 471 -477 0
1 478 370 0
1 -478 -359 0
1 -478 479 0
1 478 476 0
1 480 -471 0
1 481 -482 0
1 483 -359 0
1 483 484 0
1 -483 -485 0
1 -370 -486 0
1 370 367 0
1 370 -233 0
1 -487 368 0
1 487 478 0
1 -487 -488 0
1 477 350 0
1 477 -372 0
1 486 -479 0
1 -486 477 0
1 -489 -366 0
1 489 -490 0
1 491 492 0
1 -372 493 0
1 -372 494 0
1 -495 -493 0
1 -496 -497 0
1 498 499 0
1 -498 -490 0
1 498 -477 0
1 500 501 0
1 499 -502 0
1 -488 503 0
1 488 487 0
1 -504 505 0
1 502 -506 0
1 507 -508 0
1 507 -499 0
1 -507 509 0
1 -497 509 0
1 497 501 0
1 -510 -501 0
1 506 -511 0
1 -506 -498 0
1 -512 -513 0
1 -512 514 0
1 -515 516 0
1 -515 -517 0
1 -518 375 0
1 519 513 0
1 519 -520 0
1 -519 -512 0
1 516 -521 0
1 522 523 0
1 -524 525 0
1 526 519 0
1 -527 520 0
1 -527 -528 0
1 520 -529 0
1 530 389 0
1 -517 -380 0
1 -517 518 0
1 528 -531 0
1 -381 532 0
1 381 -377 0
1 -380 -376 0
1 -533 534 0
1 533 -535 0
1 -533 382 0
1 -535 536 0
1 -535 -529 0
1 -529 527 0
1 -532 537 0
1 -532 -538 0
1 -532 -539 0
1 -532 540 0
1 -532 541 0
1 -541 -542 0
1 541 540 0
1 536 534 0
1 -536 385 0
1 543 -544 0
1 543 545 0
1 -543 546 0
1 -534 543 0
1 -534 547 0
1 -548 -549 0
1 548 546 0
1 -548 536 0
1 -548 -550 0
1 551 552 0
1 -397 -398 0
1 -404 -398 0
1 -547 553 0
1 554 550 0
1 555 -543 0
1 555 547 0
1 -545 -397 0
1 545 554 0
1 556 -552 0
1 -556 547 0
1 -544 -404 0
1 -402 -555 0
1 407 553 0
1 407 -290 0
1 407 557 0
1 -406 -558 0
1 -559 -406 0
1 -559 -408 0
1 558 560 0
1 -415 260 0
1 -415 561 0
1 -417 562 0
1 -417 563 0
1 -417 405 0
1 -564 562 0
1 565 -566 0
1 -565 567 0
1 -565 -568 0
1 562 -569 0
1 562 -565 0
1 562 559 0
1 561 570 0
1 566 -571 0
1 566 -572 0
1 -570 -416 0
1 -573 570 0
1 -573 -418 0
1 574 567 0
1 574 575 0
1 576 419 0
1 577 574 0
1 577 578 0
1 -577 -579 0
1 580 -577 0
1 -421 580 0
1 421 426 0
1 -581 582 0
1 575 -583 0
1 584 -574 0
1 -584 -585 0
1 -585 -421 0
1 585 -574 0
1 -586 -587 0
1 -436 588 0
1 436 589 0
1 436 590 0
1 436 426 0
1 591 -575 0
1 590 -433 0
1 590 -586 0
1 -590 592 0
1 587 -593 0
1 -587 582 0
1 589 -436 0
1 589 594 0
1 589 -595 0
1 438 -433 0
1 438 -435 0
1 -438 -596 0
1 -438 590 0
1 433 582 0
1 -433 438 0
1 597 -425 0
1 -441 -598 0
1 425 -591 0
1 -425 599 0
1 -425 597 0
1 600 -601 0
1 600 -438 0
1 -600 -602 0
1 427 -603 0
1 -427 426 0
1 -604 449 0
1 604 -598 0
1 -449 605 0
1 601 606 0
1 -607 608 0
1 -609 -601 0
1 609 457 0
1 608 610 0
1 608 -597 0
1 -598 -607 0
1 598 441 0
1 -611 598 0
1 611 -612 0
1 613 446 0
1 -613 -447 0
1 -460 -614 0
1 -460 -615 0
1 -457 616 0
1 457 -615 0
1 -616 -460 0
1 -616 -466 0
1 617 607 0
1 617 618 0
1 619 -616 0
1 -466 -620 0
1 621 622 0
1 621 -473 0
1 621 -623 0
1 624 473 0
1 625 -450 0
1 -615 626 0
1 473 -465 0
1 -463 627 0
1 -475 -624 0
1 -475 -627 0
1 -628 629 0
1 -630 451 0
1 630 -475 0
1 -629 630 0
1 -629 -454 0
1 -629 631 0
1 627 -632 0
1 -627 -466 0
1 633 -370 0
1 633 -470 0
1 -633 -481 0
1 633 634 0
1 -635 479 0
1 -485 629 0
1 485 -636 0
1 -484 629 0
1 462 485 0
1 -634 -462 0
1 634 485 0
1 636 637 0
1 -638 -639 0
1 638 634 0
1 -638 496 0
1 490 -498 0
1 490 -462 0
1 490 -640 0
1 -490 641 0
1 -642 643 0
1 -642 -644 0
1 640 482 0
1 640 645 0
1 640 643 0
1 -646 -647 0
1 646 490 0
1 -646 -482 0
1 648 -646 0
1 648 -649 0
1 648 494 0
1 650 -502 0
1 650 640 0
1 -503 -650 0
1 508 507 0
1 508 -504 0
1 -651 -511 0
1 -651 -652 0
1 653 654 0
1 -653 -481 0
1 653 -655 0
1 -653 -644 0
1 641 656 0
1 657 658 0
1 657 659 0
1 -660 -659 0
1 660 488 0
1 661 -492 0
1 -661 662 0
1 -511 -492 0
1 -663 -657 0
1 663 -477 0
1 658 644 0
1 492 -652 0
1 664 663 0
1 -664 -665 0
1 -664 510 0
1 -666 -667 0
1 668 -669 0
1 -668 -670 0
1 -665 -671 0
1 672 661 0
1 -672 671 0
1 -672 668 0
1 -662 673 0
1 674 -511 0
1 674 -675 0
1 676 677 0
1 -678 -679 0
1 -671 -678 0
1 -671 669 0
1 -670 -680 0
1 -679 -676 0
1 -681 -510 0
1 681 682 0
1 669 671 0
1 514 -683 0
1 -684 685 0
1 686 -524 0
1 686 -526 0
1 -685 522 0
1 523 687 0
1 523 688 0
1 689 -690 0
1 689 691 0
1 692 693 0
1 -692 689 0
1 692 -694 0
1 695 -525 0
1 688 696 0
1 -688 686 0
1 697 698 0
1 697 -693 0
1 697 699 0
1 525 -516 0
1 -525 381 0
1 531 690 0
1 531 380 0
1 -531 -687 0
1 700 695 0
1 -700 -528 0
1 -701 -687 0
1 -702 703 0
1 702 689 0
1 -702 -704 0
1 -540 690 0
1 -540 -536 0
1 542 532 0
1 -705 706 0
1 707 -540 0
1 -707 700 0
1 708 -709 0
1 -708 -710 0
1 -711 -712 0
1 711 540 0
1 713 -714 0
1 713 -715 0
1 713 710 0
1 -537 535 0
1 -549 -716 0
1 549 550 0
1 550 538 0
1 -550 708 0
1 -706 539 0
1 717 718 0
1 -719 -720 0
1 -552 -721 0
1 -552 -716 0
1 552 557 0
1 -557 552 0
1 -557 716 0
1 -722 -716 0
1 722 556 0
1 -722 723 0
1 -723 538 0
1 -716 724 0
1 -716 725 0
1 -716 723 0
1 -538 -722 0
1 726 -721 0
1 725 727 0
1 -725 -545 0
1 728 721 0
1 -728 -729 0
1 -730 -731 0
1 729 732 0
1 -729 -725 0
1 729 723 0
1 -733 730 0
1 733 725 0
1 727 -725 0
1 572 558 0
1 560 -563 0
1 -560 734 0
1 735 736 0
1 735 737 0
1 -735 738 0
1 -738 735 0
1 737 545 0
1 -737 -734 0
1 739 740 0
1 569 732 0
1 -569 -741 0
1 742 562 0
1 -742 567 0
1 -742 741 0
1 -743 -567 0
1 -743 744 0
1 -745 567 0
1 745 746 0
1 -745 -743 0
1 -747 748 0
1 -749 -750 0
1 -749 735 0
1 -749 -738 0
1 -744 -751 0
1 579 567 0
1 752 579 0
1 753 -571 0
1 -753 747 0
1 -753 -741 0
1 -754 582 0
1 754 755 0
1 -754 756 0
1 -754 -594 0
1 755 754 0
1 755 -593 0
1 755 -745 0
1 -755 -579 0
1 -571 -757 0
1 571 743 0
1 -758 -745 0
1 -758 753 0
1 -596 -755 0
1 596 -759 0
1 582 587 0
1 582 -585 0
1 -594 -760 0
1 -593 -754 0
1 -593 761 0
1 -762 594 0
1 -763 -596 0
1 759 -756 0
1 -759 -596 0
1 -764 427 0
1 764 -765 0
1 606 -766 0
1 767 768 0
1 769 614 0
1 769 -770 0
1 -760 -767 0
1 760 603 0
1 761 767 0
1 612 -611 0
1 612 -459 0
1 771 765 0
1 -766 767 0
1 -766 -772 0
1 766 773 0
1 595 774 0
1 595 -775 0
1 -776 -777 0
1 -776 609 0
1 776 617 0
1 778 -599 0
1 618 779 0
1 618 780 0
1 620 771 0
1 -620 781 0
1 599 425 0
1 599 -782 0
1 777 -783 0
1 781 -776 0
1 781 -784 0
1 785 786 0
1 787 -473 0
1 787 -615 0
1 -787 -788 0
1 789 -790 0
1 -789 791 0
1 789 792 0
1 -790 789 0
1 790 791 0
1 610 789 0
1 -791 598 0
1 -793 -789 0
1 -793 -794 0
1 -793 795 0
1 793 796 0
1 -626 -792 0
1 -623 797 0
1 623 -610 0
1 -623 624 0
1 -798 799 0
1 798 797 0
1 -798 800 0
1 798 -801 0
1 798 632 0
1 632 -798 0
1 -800 -616 0
1 -800 -802 0
1 800 803 0
1 -800 -632 0
1 800 -631 0
1 804 -617 0
1 631 -622 0
1 631 -636 0
1 631 -494 0
1 -802 -482 0
1 -802 800 0
1 802 -636 0
1 805 -800 0
1 -805 806 0
1 807 808 0
1 809 798 0
1 -809 807 0
1 -809 802 0
1 -809 -624 0
1 -809 805 0
1 801 -632 0
1 801 -805 0
1 637 810 0
1 -637 -811 0
1 637 812 0
1 -813 622 0
1 813 -814 0
1 813 815 0
1 813 644 0
1 -647 -816 0
1 -811 655 0
1 -808 817 0
1 808 810 0
1 818 -810 0
1 -815 627 0
1 -643 642 0
1 -643 -657 0
1 -643 -648 0
1 819 -808 0
1 819 -643 0
1 -656 820 0
1 -814 -647 0
1 -814 821 0
1 -814 -822 0
1 -652 -649 0
1 654 -823 0
1 824 814 0
1 -820 825 0
1 826 646 0
1 826 -827 0
1 826 -824 0
1 -649 -828 0
1 825 -658 0
1 -825 659 0
1 -829 -674 0
1 -830 -831 0
1 830 832 0
1 833 820 0
1 834 831 0
1 834 -835 0
1 831 -836 0
1 -837 833 0
1 -838 681 0
1 -839 840 0
1 -839 -841 0
1 832 -833 0
1 842 843 0
1 -842 -833 0
1 -682 670 0
1 -844 845 0
1 845 -846 0
1 -847 680 0
1 848 -849 0
1 673 -844 0
1 -673 850 0
1 851 852 0
1 853 848 0
1 853 843 0
1 853 -854 0
1 849 -854 0
1 -855 854 0
1 854 -853 0
1 696 692 0
1 696 -697 0
1 856 857 0
1 -858 703 0
1 859 -856 0
1 -860 -856 0
1 860 -693 0
1 703 -859 0
1 -861 -862 0
1 861 863 0
1 714 -861 0
1 -714 -862 0
1 864 865 0
1 -866 -704 0
1 -718 857 0
1 718 -722 0
1 718 -864 0
1 718 867 0
1 -868 861 0
1 -868 -710 0
1 -863 -714 0
1 -869 -861 0
1 -869 -870 0
1 -862 -869 0
1 -862 870 0
1 871 -717 0
1 871 -863 0
1 -872 -717 0
1 873 874 0
1 731 -875 0
1 876 718 0
1 877 878 0
1 877 -718 0
1 867 879 0
1 -880 -721 0
1 -880 727 0
1 -880 -572 0
1 881 733 0
1 882 880 0
1 882 -883 0
1 882 731 0
1 -884 -885 0
1 -884 -706 0
1 875 -886 0
1 875 887 0
1 -887 -719 0
1 -887 -888 0
1 -740 -889 0
1 -740 -743 0
1 -746 740 0
1 890 891 0
1 -890 892 0
1 -890 893 0
1 890 894 0
1 890 -895 0
1 -896 888 0
1 -895 -897 0
1 895 892 0
1 -895 -739 0
1 897 -895 0
1 -894 -898 0
1 -899 900 0
1 -899 892 0
1 -899 894 0
1 -901 -902 0
1 901 903 0
1 -901 757 0
1 -901 904 0
1 905 733 0
1 905 -906 0
1 -905 -895 0
1 -900 899 0
1 900 -894 0
1 757 571 0
1 757 741 0
1 907 -903 0
1 -907 908 0
1 909 751 0
1 -909 -907 0
1 910 911 0
1 912 -899 0
1 912 -913 0
1 912 894 0
1 -898 -757 0
1 -898 914 0
1 756 -758 0
1 -915 748 0
1 -916 -748 0
1 -916 -917 0
1 916 -908 0
1 908 907 0
1 908 741 0
1 918 -919 0
1 918 -920 0
1 751 921 0
1 922 773 0
1 -923 -759 0
1 924 925 0
1 926 -927 0
1 -928 -770 0
1 -929 -930 0
1 -929 -758 0
1 -929 -923 0
1 -931 -925 0
1 932 -928 0
1 -932 933 0
1 -934 774 0
1 -934 -786 0
1 -934 -932 0
1 933 924 0
1 -935 936 0
1 -925 772 0
1 -925 759 0
1 -775 -785 0
1 937 -933 0
1 786 -938 0
1 -939 799 0
1 939 940 0
1 939 -795 0
1 -941 -942 0
1 941 -938 0
1 938 932 0
1 938 -943 0
1 -944 626 0
1 -944 945 0
1 -944 791 0
1 946 -785 0
1 -946 777 0
1 -799 -947 0
1 -799 795 0
1 799 948 0
1 949 950 0
1 949 951 0
1 950 -786 0
1 945 -952 0
1 -945 -795 0
1 -945 -953 0
1 954 -937 0
1 -954 955 0
1 -951 -793 0
1 -956 957 0
1 956 -958 0
1 -782 -959 0
1 -947 -956 0
1 947 782 0
1 -958 957 0
1 958 953 0
1 958 -960 0
1 -957 -955 0
1 957 960 0
1 961 -962 0
1 -961 963 0
1 -961 801 0
1 -961 -806 0
1 963 964 0
1 -963 -961 0
1 -963 806 0
1 -965 -966 0
1 816 962 0
1 -816 -967 0
1 816 964 0
1 964 -968 0
1 964 -969 0
1 964 960 0
1 -962 965 0
1 -970 971 0
1 -970 -791 0
1 -972 -973 0
1 -974 -809 0
1 -974 -975 0
1 976 -815 0
1 -969 656 0
1 -969 -815 0
1 -969 -973 0
1 975 -977 0
1 803 978 0
1 973 -972 0
1 966 -979 0
1 -966 965 0
1 -977 -980 0
1 977 981 0
1 823 968 0
1 -823 -803 0
1 -982 -983 0
1 -984 -985 0
1 -985 -986 0
1 980 969 0
1 980 809 0
1 987 823 0
1 987 969 0
1 987 988 0
1 987 -977 0
1 987 989 0
1 990 -989 0
1 990 978 0
1 822 825 0
1 822 649 0
1 991 992 0
1 827 821 0
1 -993 -989 0
1 -992 982 0
1 817 -994 0
1 -817 -827 0
1 817 993 0
1 -817 991 0
1 -995 -827 0
1 995 -996 0
1 -995 993 0
1 995 984 0
1 -828 -992 0
1 997 -645 0
1 841 992 0
1 841 998 0
1 -999 -821 0
1 -999 -1000 0
1 -999 996 0
1 -821 1001 0
1 -1002 -993 0
1 1003 998 0
1 -998 1003 0
1 -998 827 0
1 -836 837 0
1 1004 -821 0
1 1004 -1000 0
1 1005 -1006 0
1 -1005 -835 0
1 1001 -840 0
1 1001 821 0
1 1000 -1007 0
1 1008 -1000 0
1 -1009 -1006 0
1 1009 999 0
1 1010 -832 0
1 843 -1010 0
1 -843 -1011 0
1 -850 1012 0
1 850 1007 0
1 1007 -675 0
1 -835 1007 0
1 1013 -1010 0
1 865 -857 0
1 -865 1014 0
1 1015 -1016 0
1 870 -1016 0
1 -1017 -858 0
1 1018 1019 0
1 1018 1020 0
1 -1021 1022 0
1 -1021 880 0
1 1023 869 0
1 1023 868 0
1 -1024 879 0
1 -1022 1025 0
1 -1026 -1021 0
1 -1026 -1025 0
1 -1026 -1027 0
1 -1028 866 0
1 -1028 -1024 0
1 1028 1029 0
1 -886 -1030 0
1 -1031 -1022 0
1 1031 1030 0
1 1031 -1026 0
1 1032 -1025 0
1 -1033 -1032 0
1 1033 1034 0
1 -1033 1027 0
1 1035 1036 0
1 1037 1038 0
1 1037 1025 0
1 -1037 1039 0
1 888 -882 0
1 -888 -895 0
1 885 -875 0
1 -885 882 0
1 -1040 1041 0
1 -1040 -1042 0
1 1040 -1043 0
1 -1044 1038 0
1 -1045 -885 0
1 -1043 1046 0
1 -1047 -879 0
1 1047 -888 0
1 891 1048 0
1 1049 -1045 0
1 1050 -1051 0
1 -1050 900 0
1 -1052 -1050 0
1 -1052 -1049 0
1 1048 -891 0
1 -1048 -1040 0
1 1041 -1053 0
1 -1041 -1054 0
1 1041 1055 0
1 -902 -1056 0
1 914 1057 0
1 -1058 -1053 0
1 -1058 -1059 0
1 -1058 -1060 0
1 -1061 911 0
1 -1061 1058 0
1 -1061 -1062 0
1 1061 892 0
1 -1051 -890 0
1 1059 914 0
1 1059 1063 0
1 1064 914 0
1 911 1065 0
1 911 -1057 0
1 -911 -912 0
1 -920 -1066 0
1 -920 -751 0
1 1067 -911 0
1 1067 1068 0
1 -1067 -914 0
1 -1069 903 0
1 1069 -1070 0
1 -1071 -1062 0
1 1071 -1072 0
1 -1071 920 0
1 -919 1073 0
1 919 748 0
1 921 1074 0
1 -1068 -1075 0
1 1074 919 0
1 -1074 -910 0
1 1074 -921 0
1 1076 -1062 0
1 -1075 -1066 0
1 1075 1077 0
1 1066 1078 0
1 1066 1079 0
1 1066 1080 0
1 -930 935 0
1 1081 1082 0
1 -1081 927 0
1 1081 -928 0
1 -1083 1074 0
1 1084 -1085 0
1 -1084 1086 0
1 -1084 1087 0
1 -1084 -1081 0
1 1088 1089 0
1 -1089 1090 0
1 1089 1081 0
1 1086 -1084 0
1 -1086 944 0
1 -1091 -938 0
1 -1092 -938 0
1 -1093 1083 0
1 -1093 1094 0
1 1094 952 0
1 1095 1096 0
1 1096 -1083 0
1 -1096 1092 0
1 952 -1085 0
1 952 1097 0
1 -952 941 0
1 -1098 942 0
1 -1098 -1099 0
1 -1098 -960 0
1 -1100 -945 0
1 -1100 1101 0
1 1102 952 0
1 -1099 -1103 0
1 -1097 -1092 0
1 -1097 -1104 0
1 1101 1100 0
1 1101 1105 0
1 -1101 -1106 0
1 953 -950 0
1 955 -1107 0
1 955 958 0
1 1103 1108 0
1 -1103 1109 0
1 -967 -957 0
1 967 1110 0
1 1109 -955 0
1 -1109 1107 0
1 -1109 1111 0
1 -943 1111 0
1 943 -1112 0
1 1113 -782 0
1 1113 -970 0
1 959 -970 0
1 1114 -971 0
1 -1114 1108 0
1 -971 1115 0
1 -971 -1116 0
1 971 -970 0
1 -1117 -949 0
1 -1117 -1118 0
1 -1119 -968 0
1 1119 -967 0
1 -1108 1111 0
1 1110 -1120 0
1 1110 -954 0
1 -1121 970 0
1 -1121 973 0
1 -968 -962 0
1 -968 964 0
1 1122 1123 0
1 -1124 1122 0
1 -1124 1125 0
1 -1116 1126 0
1 988 -1124 0
1 -988 -973 0
1 978 -1127 0
1 978 973 0
1 1128 1129 0
1 989 -1130 0
1 1127 -1126 0
1 -1131 1132 0
1 -1131 1133 0
1 -1134 1126 0
1 -1134 989 0
1 1133 -1135 0
1 1133 1127 0
1 1135 990 0
1 1132 -1136 0
1 -996 -995 0
1 996 -1131 0
1 -996 1127 0
1 1137 1138 0
1 -1137 -994 0
1 -1137 1139 0
1 -1140 1141 0
1 -1142 -1143 0
1 -1130 1128 0
1 1130 1144 0
1 -994 1003 0
1 994 1145 0
1 994 998 0
1 -1146 817 0
1 -1138 1147 0
1 -1147 -986 0
1 1147 -1148 0
1 -1147 -1149 0
1 -986 1132 0
1 1148 -986 0
1 -1148 994 0
1 -1136 987 0
1 1136 -1141 0
1 1136 -1147 0
1 1145 990 0
1 -1150 1002 0
1 -1151 986 0
1 1151 -1148 0
1 -1152 1138 0
1 -1152 -1151 0
1 -1149 1150 0
1 1153 -1012 0
1 1154 -1030 0
1 -1154 1155 0
1 1029 -1156 0
1 1039 1038 0
1 1039 -1037 0
1 1039 1157 0
1 -1038 -1156 0
1 1157 -1038 0
1 -1156 -1038 0
1 1156 1014 0
1 -1036 -1157 0
1 -1158 1159 0
1 -1158 -1157 0
1 1160 1055 0
1 -1160 1039 0
1 -1161 1036 0
1 -1055 1162 0
1 -1055 -1047 0
1 -1056 -1163 0
1 -1164 1053 0
1 -1164 1160 0
1 -1053 1160 0
1 -1034 1065 0
1 1034 1165 0
1 1166 1034 0
1 1159 1167 0
1 -1159 1168 0
1 -1159 -1169 0
1 -1159 1164 0
1 1169 1170 0
1 1169 -1159 0
1 1169 -1171 0
1 -1169 -1168 0
1 1065 1064 0
1 1065 -1059 0
1 1172 -1062 0
1 1172 1173 0
1 -1063 1170 0
1 -1063 -1172 0
1 1063 1174 0
1 1175 -1176 0
1 1046 -1053 0
1 -1177 -1065 0
1 -1177 1176 0
1 1177 -1165 0
1 -1177 -1178 0
1 -1073 1179 0
1 1073 -1180 0
1 1181 1071 0
1 1182 1179 0
1 -1183 1071 0
1 1180 -1179 0
1 1180 1077 0
1 -1180 -1063 0
1 -1184 1181 0
1 -1174 1185 0
1 -1174 -1172 0
1 -1174 1186 0
1 1174 -1187 0
1 1070 -1067 0
1 1070 -1072 0
1 -1072 -1188 0
1 -1072 -1066 0
1 1189 1180 0
1 -1077 1188 0
1 -1077 1190 0
1 1077 1179 0
1 -1077 -1075 0
1 1191 1079 0
1 -1188 -1192 0
1 1193 -1194 0
1 -1193 -1070 0
1 1193 -1195 0
1 1193 1183 0
1 -1196 -1086 0
1 -1079 -1066 0
1 -1079 1197 0
1 -1198 -1199 0
1 1090 1200 0
1 -1201 -1196 0
1 1201 -1202 0
1 1199 1189 0
1 1199 1203 0
1 1204 -1205 0
1 1085 -1194 0
1 -1085 1200 0
1 1206 1201 0
1 1202 1095 0
1 1207 -1208 0
1 -1208 1085 0
1 -1208 -1209 0
1 1078 1207 0
1 1078 1210 0
1 -1106 -1211 0
1 -1106 -953 0
1 -1211 -1212 0
1 -1213 -1214 0
1 1215 -1216 0
1 -1215 -1217 0
1 -1215 -1218 0
1 1216 -1115 0
1 1219 -1211 0
1 -1219 -1104 0
1 1212 -1106 0
1 1217 -1220 0
1 -1217 -1213 0
1 1104 1216 0
1 1221 1097 0
1 1222 -1215 0
1 -1214 1223 0
1 -1218 1224 0
1 1218 1225 0
1 -1111 -943 0
1 -1226 1105 0
1 1226 -943 0
1 -1227 1228 0
1 -1223 -1214 0
1 -1223 -1105 0
1 1229 1115 0
1 -1228 1230 0
1 -1231 1105 0
1 -1118 1229 0
1 -1118 1232 0
1 -1129 1123 0
1 -1129 -1233 0
1 -1234 1235 0
1 -1234 1236 0
1 1232 1223 0
1 -1232 -1129 0
1 1232 -1235 0
1 -1232 -1118 0
1 -1237 -1238 0
1 -1237 1235 0
1 -1112 1235 0
1 1239 -1116 0
1 1240 1241 0
1 -1240 -1242 0
1 1240 1125 0
1 1236 -1243 0
1 -1233 1244 0
1 -1233 -1240 0
1 -1233 -1143 0
1 1243 -1240 0
1 1243 1143 0
1 1243 1245 0
1 1246 1236 0
1 1241 1246 0
1 1143 1125 0
1 -1143 -1247 0
1 1144 -1248 0
1 -1144 -1249 0
1 1125 1250 0
1 1125 -1236 0
1 -1251 -1252 0
1 -1251 -1143 0
1 -1242 -1252 0
1 1242 1251 0
1 1253 -1254 0
1 1253 -1250 0
1 -1250 1254 0
1 -1250 1255 0
1 1250 -1145 0
1 -1250 -1256 0
1 1256 1144 0
1 -1255 -1250 0
1 1255 1256 0
1 1249 1139 0
1 -1249 1134 0
1 1257 -1258 0
1 1168 -1159 0
1 -1168 -1259 0
1 -1167 1159 0
1 -1170 -1169 0
1 1260 -1261 0
1 -1259 -1262 0
1 1263 -1170 0
1 -1165 -1073 0
1 1165 -1264 0
1 -1178 -1165 0
1 1265 -1266 0
1 -1267 -1177 0
1 -1267 1183 0
1 1266 1268 0
1 -1176 -1184 0
1 -1186 -1269 0
1 1186 1270 0
1 -1185 1269 0
1 1185 -1271 0
1 -1185 1268 0
1 -1185 -1272 0
1 1268 1269 0
1 1273 -1274 0
1 1275 1185 0
1 -1269 1276 0
1 -1269 1277 0
1 1270 -1185 0
1 1278 1279 0
1 -1278 -1280 0
1 1278 -1174 0
1 -1278 -1180 0
1 1281 1282 0
1 -1272 -1283 0
1 1194 1280 0
1 1194 -1199 0
1 1192 -1194 0
1 -1192 1204 0
1 -1205 1284 0
1 1205 -1187 0
1 1285 -1286 0
1 -1285 1287 0
1 1288 1286 0
1 1288 -1289 0
1 -1187 1288 0
1 1290 -1190 0
1 -1290 -1078 0
1 -1290 -1203 0
1 -1290 1199 0
1 1290 -1210 0
1 1291 1078 0
1 1287 -1284 0
1 1287 -1292 0
1 -1287 -1291 0
1 1293 -1294 0
1 -1293 -1220 0
1 1293 -1290 0
1 1295 1296 0
1 -1295 -1291 0
1 1284 -1297 0
1 -1284 1203 0
1 -1298 1292 0
1 1298 1293 0
1 1298 1299 0
1 1209 1078 0
1 1209 1293 0
1 1209 -1292 0
1 1300 -1301 0
1 1300 -1302 0
1 -1300 -1303 0
1 1220 1297 0
1 -1292 1304 0
1 -1305 1220 0
1 1299 -1306 0
1 1307 1308 0
1 -1307 -1303 0
1 1307 1217 0
1 -1307 1111 0
1 1304 1292 0
1 1309 1310 0
1 1303 1224 0
1 1311 1307 0
1 1311 -1312 0
1 -1313 -1314 0
1 1225 1315 0
1 1225 -1308 0
1 1315 1316 0
1 1315 1308 0
1 -1315 1317 0
1 1318 1105 0
1 1319 1320 0
1 1319 -1317 0
1 1319 1321 0
1 1317 -1318 0
1 1310 -1322 0
1 1323 -1324 0
1 -1323 1231 0
1 -1323 -1325 0
1 -1323 1105 0
1 1326 1327 0
1 -1328 1329 0
1 1324 -1235 0
1 -1327 -1323 0
1 1330 1232 0
1 -1235 -1331 0
1 1235 -1143 0
1 1332 1333 0
1 -1248 -1334 0
1 -1334 -1244 0
1 -1335 1326 0
1 -1331 -1332 0
1 1331 -1335 0
1 1331 1248 0
1 1331 1328 0
1 1244 1251 0
1 -1336 -1253 0
1 -1336 1333 0
1 1336 1337 0
1 -1336 1338 0
1 -1252 -1336 0
1 -1252 1242 0
1 -1252 1250 0
1 -1252 1339 0
1 -1238 -1252 0
1 1238 -1248 0
1 -1279 1278 0
1 1279 1340 0
1 -1277 -1279 0
1 1341 1269 0
1 -1342 1340 0
1 -1262 1343 0
1 -1343 -1277 0
1 1344 1273 0
1 -1276 1345 0
1 -1346 1347 0
1 -1346 -1271 0
1 1346 -1345 0
1 -1346 -1272 0
1 -1348 1347 0
1 -1349 -1276 0
1 1349 -1350 0
1 -1345 1351 0
1 1352 1353 0
1 -1353 1354 0
1 -1353 -1355 0
1 -1356 1275 0
1 -1357 -1358 0
1 -1357 1359 0
1 -1286 1288 0
1 -1286 1360 0
1 -1296 -1361 0
1 -1296 -1289 0
1 1296 1295 0
1 1296 1300 0
1 -1362 1296 0
1 1363 1286 0
1 1363 1362 0
1 1363 1364 0
1 -1365 -1271 0
1 -1365 1355 0
1 1283 -1286 0
1 1283 -1354 0
1 -1294 -1284 0
1 -1294 1293 0
1 1366 1361 0
1 1366 -1363 0
1 -1367 1368 0
1 -1367 -1366 0
1 1367 1369 0
1 -1370 1371 0
1 1289 -1294 0
1 1372 1369 0
1 -1373 -1302 0
1 -1373 1299 0
1 1374 -1375 0
1 -1374 1376 0
1 1321 1370 0
1 -1369 1377 0
1 1378 1379 0
1 -1378 -1380 0
1 1378 1314 0
1 -1375 -1381 0
1 1380 -1382 0
1 -1329 -1320 0
1 1382 -1314 0
1 1322 -1317 0
1 -1322 1383 0
1 1383 1384 0
1 -1385 -1386 0
1 -1385 1387 0
1 -1388 -1389 0
1 1388 1390 0
1 1391 -1392 0
1 1391 -1393 0
1 -1394 -1327 0
1 -1395 -1392 0
1 -1387 1316 0
1 1387 1394 0
1 1387 1396 0
1 -1386 -1394 0
1 -1397 -1398 0
1 1359 -1399 0
1 1400 -1350 0
1 1358 1347 0
1 -1401 1359 0
1 1402 -1358 0
1 1403 -1262 0
1 -1404 -1401 0
1 -1404 1405 0
1 -1404 -1294 0
1 1404 1350 0
1 -1404 -1356 0
1 -1406 1350 0
1 1368 -1350 0
1 -1407 1408 0
1 1407 -1409 0
1 1350 -1400 0
1 1351 1345 0
1 -1409 1362 0
1 -1410 1283 0
1 -1411 1412 0
1 1413 -1414 0
1 -1413 1406 0
1 -1413 -1356 0
1 1415 -1416 0
1 1415 -1417 0
1 -1418 -1419 0
1 1418 1420 0
1 1414 -1421 0
1 1412 -1422 0
1 -1423 -1381 0
1 1381 1424 0
1 1381 -1425 0
1 -1381 -1375 0
1 -1381 -1329 0
1 -1426 1427 0
1 -1428 1426 0
1 1429 -1430 0
1 -1430 -1412 0
1 -1427 -1431 0
1 -1432 1433 0
1 -1434 -1425 0
1 1425 -1432 0
1 1425 -1379 0
1 -1425 -1381 0
1 1435 -1427 0
1 -1424 -1432 0
1 -1424 -1423 0
1 1424 1436 0
1 1437 1438 0
1 -1439 -1435 0
1 1439 -1391 0
1 -1440 1435 0
1 1389 1441 0
1 -1377 1369 0
1 1442 1439 0
1 1443 1414 0
1 1444 1445 0
1 -1444 -1407 0
1 -1416 -1415 0
1 1417 -1446 0
1 -1446 -1401 0
1 -1447 -1448 0
1 -1447 -1444 0
1 1448 1446 0
1 -1448 -1427 0
1 1448 1430 0
1 -1433 -1449 0
1 1433 1450 0
1 -1433 -1430 0
1 1451 1438 0
1 1451 1452 0
1 1452 -1438 0
1 -1452 1350 0
1 1438 -1453 0
1 -1453 -1450 0
1 -1453 -1430 0
1 1454 -1389 0
1 -1454 1449 0
1 1454 -1420 0
1 1420 1418 0
